Route #1: 20 41 22 15
Route #2: 35 46 31
Route #3: 92 9 86
Route #4: 93 75
Route #5: 83 51 81
Route #6: 21 56 94 80
Route #7: 32 33 53 73 95 24
Route #8: 19 97 27
Route #9: 30 85 11 79
Route #10: 57 72 36 29 43 45 2 7
Route #11: 14 49 6 37 87
Route #12: 52 91 50
Route #13: 66 84 90 68
Route #14: 69 16 55 76
Route #15: 18 10 39
Route #16: 74 13 4
Route #17: 58 12 5
Route #18: 8 17
Route #19: 38 47 26 48 96 64 34
Route #20: 89 98 99 62 71
Route #21: 23 61 100
Route #22: 82 60 59
Route #23: 1 70 54
Route #24: 40 67 88 44
Route #25: 25 65 78 42 28
Route #26: 63 77 3
Cost 27591.0000
Time 16.0002